50

99 22 314
96 25 299
95 5 288
95 32 436
92 31 413
91 41 450
90 3 337
86 40 319
86 11 422
86 24 412
85 23 268
80 5 271
77 4 399
77 27 348
76 16 254
76 4 349
71 17 342
70 4 373
70 15 374
69 4 383
68 7 272
64 8 278
64 25 424
61 13 441
60 28 384
60 5 425
56 3 265
55 3 419
53 25 378
52 4 338
50 8 427
48 4 416
44 14 424
41 6 337
40 7 353
38 16 276
38 10 159
37 5 426
35 13 446
21 10 279
19 7 162
14 5 192
12 3 271
9 2 385
6 1 116
6 2 25
6 3 227
4 2 346
3 2 365
2 1 283
